# Cost: 228

# Tail Head Net
33 13 1
53 33 1
73 53 1
93 73 1
113 93 1
133 113 1
153 133 1
173 153 1
193 173 1
213 193 1
233 213 1
253 233 1
273 253 1
274 273 1
275 274 1
275 675 1
276 275 1
277 276 1
278 277 1
279 278 1
280 279 1
355 375 1
375 395 1
391 390 1
392 391 1
393 392 1
394 393 1
395 394 1
395 396 1
396 397 1
675 695 1
695 715 1
715 735 1
735 755 1
755 355 1
16 17 2
17 18 2
18 19 2
19 20 2
36 16 2
54 55 2
55 56 2
56 36 2
105 505 2
125 105 2
141 142 2
142 143 2
143 144 2
144 145 2
145 125 2
145 165 2
165 185 2
185 205 2
205 225 2
225 245 2
245 265 2
265 285 2
285 305 2
305 325 2
325 345 2
345 365 2
365 385 2
446 447 2
447 448 2
448 449 2
449 450 2
450 451 2
451 452 2
452 453 2
453 454 2
454 54 2
466 446 2
485 486 2
486 466 2
505 485 2
28 8 3
48 28 3
68 48 3
88 68 3
108 88 3
128 108 3
148 128 3
168 148 3
188 168 3
208 188 3
220 240 3
228 208 3
239 259 3
240 239 3
248 228 3
259 659 3
268 248 3
286 306 3
288 268 3
288 688 3
289 288 3
290 289 3
291 290 3
292 291 3
293 292 3
294 293 3
295 294 3
296 295 3
297 296 3
298 297 3
299 298 3
299 300 3
306 326 3
326 346 3
346 366 3
366 386 3
659 679 3
679 699 3
686 286 3
687 686 3
688 687 3
699 299 3
221 201 4
241 221 4
261 241 4
261 281 4
281 301 4
301 321 4
321 341 4
341 342 4
342 362 4
362 382 4
382 383 4
4 5 5
5 6 5
6 7 5
7 27 5
27 47 5
47 67 5
67 87 5
87 107 5
107 507 5
116 136 5
136 137 5
137 138 5
138 139 5
139 140 5
140 160 5
160 180 5
180 200 5
507 508 5
508 509 5
509 510 5
510 511 5
511 512 5
512 513 5
513 514 5
514 515 5
515 516 5
516 116 5
23 3 6
24 23 6
44 24 6
45 44 6
65 45 6
66 65 6
86 66 6
106 86 6
126 106 6
146 126 6
147 146 6
167 147 6
187 167 6
207 187 6
227 207 6
247 227 6
267 247 6
287 267 6
307 287 6
308 307 6
328 308 6
328 329 6
329 330 6
330 331 6
331 332 6
332 333 6
333 334 6
334 335 6
335 336 6
336 337 6
337 338 6
338 339 6
339 340 6
348 328 6
368 348 6
388 368 6
122 121 7
380 780 7
480 80 7
500 480 7
520 500 7
522 122 7
523 522 7
524 523 7
525 524 7
526 525 7
527 526 7
528 527 7
529 528 7
530 529 7
531 530 7
532 531 7
533 532 7
534 533 7
535 534 7
536 535 7
537 536 7
538 537 7
539 538 7
540 520 7
540 539 7
560 540 7
580 560 7
600 580 7
620 600 7
640 620 7
660 640 7
680 660 7
700 680 7
720 700 7
740 720 7
760 740 7
780 760 7
